% ----------------------------- %
% ----  INPUT DATA ------------ %
% ----------------------------- %

alcada_taulell = 7; % alcada_taulell means board height
amplada_taulell = 7; % amplada_taulell means board width

n_finques = 8; % n_finques means number of estates to place
finques = [3, 4, 5, 7, 8, 11, 12, 13]; % finques means the estate types to place

n_parcs = 4; % n_parcs means number of park cells
parcs = [|1,7|2,6|2,7|5,2|]; % parcs means board positions of park cells

n_camins = 4; % n_camins means number of path cells
camins = [|7,4|7,5|7,6|7,7|]; % camins means board positions of path cells

n_incompatibles = 1; % n_incompatibles means number of incompatibilities 
incompatibles = [|1, 8|]; % incompatibles means pairs of estate IDs that cannot be neighbors

finques_amb_parc = {4}; % finques_amb_parc means estate IDs that must be adjacent to a park


% ----------------------------- %
% --  CONFIGURATION DATA ----- %
% -------  (do not edit) ------ %
% ----------------------------- %

n_tipus = 13; % n_tipus means number of different estate types

total_orientacions = 65; % total_orientacions means total number of orientations
maxim_caselles = 6; % maxim_caselles means max cells used by any piece

inici_orientacions = [1, 9, 11, 19, 27, 35, 39, 43, 47, 51, 52, 60, 64]; % inici_orientacions means where each piece type starts in the orientation array  
orientacions_finques = [8, 2, 8, 8, 8, 4, 4, 4, 4, 1, 8, 4, 2]; % orientacions_finques means number of orientations for each estate type
caselles_finques = [5, 5, 5, 5, 5, 5, 5, 5, 5, 5, 5, 5, 6]; % caselles_finques means number of cells for each estate type

finques_amb_orientacions = array3d(1..total_orientacions, 1..maxim_caselles, 1..2, [
    % Type 1 (8 orientations)
    1,2, 1,3, 2,1, 2,2, 3,2, 0,0,
    1,1, 2,1, 2,2, 2,3, 3,2, 0,0,
    1,2, 2,2, 2,3, 3,1, 3,2, 0,0,
    1,2, 2,1, 2,2, 2,3, 3,2, 0,0,
    1,1, 1,2, 2,2, 2,3, 3,2, 0,0,
    1,3, 2,1, 2,2, 2,3, 3,2, 0,0,
    1,2, 2,1, 2,2, 3,2, 3,3, 0,0,
    1,2, 2,1, 2,2, 2,3, 3,1, 0,0,
    
    % Type 2 line of 5 blocks
    1,1, 1,2, 1,3, 1,4, 1,5, 0,0,
    1,1, 2,1, 3,1, 4,1, 5,1, 0,0,
    
    % Type 3: L shape with 5 blocks
    1,1, 2,1, 3,1, 4,1, 4,2, 0,0,
    1,2, 2,2, 3,2, 4,1, 4,2, 0,0,
    1,4, 2,1, 2,2, 2,3, 2,4, 0,0,
    1,1, 2,1, 2,2, 2,3, 2,4, 0,0,
    1,1, 1,2, 2,2, 3,2, 4,2, 0,0,
    1,1, 1,2, 2,1, 3,1, 4,1, 0,0,
    1,1, 1,2, 1,3, 1,4, 2,1, 0,0,
    1,1, 1,2, 1,3, 1,4, 2,4, 0,0,
    
    % Type 4 
    1,1, 2,1, 3,1, 3,2, 4,2, 0,0,
    1,2, 2,2, 3,1, 3,2, 4,1, 0,0,
    1,3, 1,4, 2,1, 2,2, 2,3, 0,0,
    1,1, 1,2, 2,2, 2,3, 2,4, 0,0,
    1,1, 2,1, 2,2, 3,2, 4,2, 0,0,
    1,2, 2,1, 2,2, 3,1, 4,1, 0,0,
    1,2, 1,3, 1,4, 2,1, 2,2, 0,0,
    1,1, 1,2, 1,3, 2,3, 3,4, 0,0,
    
    % Type 5
    1,1, 1,2, 2,1, 2,2, 3,1, 0,0,
    1,1, 1,2, 2,1, 2,2, 3,2, 0,0,
    1,1, 1,2, 2,1, 2,2, 2,3, 0,0,
    1,2, 1,3, 2,1, 2,2, 2,3, 0,0,
    1,2, 2,1, 2,2, 3,1, 3,2, 0,0,
    1,1, 2,1, 2,2, 3,1, 3,2, 0,0,
    1,1, 1,2, 1,3, 2,2, 2,3, 0,0,
    1,1, 1,2, 1,3, 2,1, 2,2, 0,0,
    
    % Type 6: T shape with 4 orientations
    1,1, 1,2, 1,3, 2,2, 3,2, 0,0,
    1,1, 2,1, 2,2, 2,3, 3,1, 0,0,
    1,2, 2,2, 3,1, 3,2, 3,3, 0,0,
    1,3, 2,1, 2,2, 2,3, 3,3, 0,0,
    
    % Type 7: U shape with 4 orientations
    1,1, 1,3, 2,1, 2,2, 2,3, 0,0,
    1,1, 1,2, 2,2, 3,1, 3,2, 0,0,
    1,1, 1,2, 1,3, 2,1, 2,3, 0,0,
    1,1, 1,2, 2,1, 3,1, 3,2, 0,0,
    
    % Type 8: long L shape with 4 orientations
    1,1, 2,1, 3,1, 3,2, 3,3, 0,0,
    1,3, 2,3, 3,1, 3,2, 3,3, 0,0,
    1,1, 1,2, 1,3, 2,1, 3,1, 0,0,
    1,1, 1,2, 1,3, 2,3, 3,3, 0,0,
    
    % Type 9: unusual W shape with 4 orientations
    1,1, 2,1, 2,2, 3,2, 3,3, 0,0,
    1,3, 2,2, 2,3, 3,1, 3,2, 0,0,
    1,1, 1,2, 2,2, 2,3, 3,3, 0,0,
    1,2, 1,3, 2,1, 2,2, 3,1, 0,0,
    
    % Type 10: cross shape, 1 orientation
    1,2, 2,1, 2,2, 2,3, 3,2, 0,0,
    
    % Type 11: 8 orientations
    1,2, 2,1, 2,2, 3,2, 4,2, 0,0,
    1,1, 2,1, 2,2, 3,1, 4,1, 0,0,
    1,1, 1,2, 1,3, 1,4, 2,2, 0,0,
    1,1, 1,2, 1,3, 1,4, 2,3, 0,0,
    1,1, 2,1, 3,1, 3,2, 4,1, 0,0,
    1,2, 2,2, 3,1, 3,2, 4,2, 0,0,
    1,3, 2,1, 2,2, 2,3, 2,4, 0,0,
    1,2, 2,1, 2,2, 2,3, 2,4, 0,0,
    
    % Type 12: Z shape with 4 orientations
    1,1, 1,2, 2,2, 3,2, 3,3, 0,0,
    1,2, 1,3, 2,2, 3,1, 3,2, 0,0,
    1,3, 2,1, 2,2, 2,3, 3,1, 0,0,
    1,1, 2,1, 2,2, 2,3, 3,3, 0,0,
    
    % Type 13: rectangle with 2 orientations
    1,1, 1,2, 1,3, 2,1, 2,2, 2,3,
    1,1, 1,2, 2,1, 2,2, 3,1, 3,2, 
    
    
]);